n = 100;
C = 511;
w = [136,332,182,1,495,232,296,319,316,288,928,969,392,20,739,969,717,287,275,91,585,214,889,428,212,527,737,864,564,388,470,572,511,640,208,646,946,545,483,610,887,118,579,926,899,35,748,928,705,283,190,374,225,38,769,431,574,579,413,376,207,526,686,809,835,590,686,665,874,481,723,143,369,601,354,355,214,115,260,756,814,732,137,996,468,207,546,241,562,694,923,332,524,293,728,879,867,253,895,715];
p = [136,332,182,1,495,232,296,319,316,288,928,969,392,20,739,969,717,287,275,91,585,214,889,428,212,527,737,864,564,388,470,572,511,640,208,646,946,545,483,610,887,118,579,926,899,35,748,928,705,283,190,374,225,38,769,431,574,579,413,376,207,526,686,809,835,590,686,665,874,481,723,143,369,601,354,355,214,115,260,756,814,732,137,996,468,207,546,241,562,694,923,332,524,293,728,879,867,253,895,715];
